Minimize
	value: tt

Subject to
tt + 2000 s_1_1 > 0
tt - t_1_1 - 2000.000000 s_1_1 > -1912.997400
tt + 2000 s_2_1 > 0
tt - t_2_1 - 2000.000000 s_2_1 > -1964.590300
tt + 2000 s_1_2 > 0
tt - t_1_2 - 2000.000000 s_1_2 > -1984.556000
tt + 2000 s_2_2 > 0
tt - t_2_2 - 2000.000000 s_2_2 > -1993.167700
tt + 2000 s_1_3 > 0
tt - t_1_3 - 2000.000000 s_1_3 > -1841.219100
tt + 2000 s_2_3 > 0
tt - t_2_3 - 2000.000000 s_2_3 > -1935.954800
tt + 2000 s_1_4 > 0
tt - t_1_4 - 2000.000000 s_1_4 > -1980.710400
tt + 2000 s_2_4 > 0
tt - t_2_4 - 2000.000000 s_2_4 > -1989.540900
tt + 2000 s_1_5 > 0
tt - t_1_5 - 2064.571131 s_1_5 + 64.571131 s_1_4 > -1999.424000
tt + 2000 s_2_5 > 0
tt - t_2_5 - 2129.142263 s_2_5 + 129.142263 s_2_4 > -1998.088600
s_1_1 + s_2_1  = 1
s_1_2 + s_2_2  = 1
s_1_3 + s_2_3  = 1
s_1_4 + s_2_4  = 1
s_1_5 + s_2_5  = 1
t_1_1 - t_1_2 + 2000.000000 u_1_1_2 > 15.444000
t_1_2 - t_1_1 - 2000.000000 u_1_1_2 > -1912.997400
t_2_1 - t_2_2 + 2000.000000 u_2_1_2 > 6.832300
t_2_2 - t_2_1 - 2000.000000 u_2_1_2 > -1964.590300
t_1_1 - t_1_3 + 2000.000000 u_1_1_3 > 158.780900
t_1_3 - t_1_1 - 2000.000000 u_1_1_3 > -1912.997400
t_2_1 - t_2_3 + 2000.000000 u_2_1_3 > 64.045200
t_2_3 - t_2_1 - 2000.000000 u_2_1_3 > -1964.590300
t_1_1 - t_1_4 + 2000.000000 u_1_1_4 > 19.289600
t_1_4 - t_1_1 - 2000.000000 u_1_1_4 > -1912.997400
t_2_1 - t_2_4 + 2000.000000 u_2_1_4 > 10.459100
t_2_4 - t_2_1 - 2000.000000 u_2_1_4 > -1964.590300
t_1_5 - t_1_1 - 2000.000000 s_1_1 > -1908.408320
t_1_5 - t_2_1 - 2000.000000 s_2_1 > -1955.412140
t_2_5 - t_1_1 - 2000.000000 s_1_1 > -1908.408320
t_2_5 - t_2_1 - 2000.000000 s_2_1 > -1955.412140
t_1_2 - t_1_1 + 2000.000000 u_1_2_1 > 87.002600
t_1_1 - t_1_2 - 2000.000000 u_1_2_1 > -1984.556000
t_2_2 - t_2_1 + 2000.000000 u_2_2_1 > 35.409700
t_2_1 - t_2_2 - 2000.000000 u_2_2_1 > -1993.167700
t_1_2 - t_1_3 + 2000.000000 u_1_2_3 > 158.780900
t_1_3 - t_1_2 - 2000.000000 u_1_2_3 > -1984.556000
t_2_2 - t_2_3 + 2000.000000 u_2_2_3 > 64.045200
t_2_3 - t_2_2 - 2000.000000 u_2_2_3 > -1993.167700
t_1_2 - t_1_4 + 2000.000000 u_1_2_4 > 19.289600
t_1_4 - t_1_2 - 2000.000000 u_1_2_4 > -1984.556000
t_2_2 - t_2_4 + 2000.000000 u_2_2_4 > 10.459100
t_2_4 - t_2_2 - 2000.000000 u_2_2_4 > -1993.167700
t_1_5 - t_1_2 - 2000.000000 s_1_2 > -1979.966920
t_1_5 - t_2_2 - 2000.000000 s_2_2 > -1983.989540
t_2_5 - t_1_2 - 2000.000000 s_1_2 > -1979.966920
t_2_5 - t_2_2 - 2000.000000 s_2_2 > -1983.989540
t_1_3 - t_1_1 + 2000.000000 u_1_3_1 > 87.002600
t_1_1 - t_1_3 - 2000.000000 u_1_3_1 > -1841.219100
t_2_3 - t_2_1 + 2000.000000 u_2_3_1 > 35.409700
t_2_1 - t_2_3 - 2000.000000 u_2_3_1 > -1935.954800
t_1_3 - t_1_2 + 2000.000000 u_1_3_2 > 15.444000
t_1_2 - t_1_3 - 2000.000000 u_1_3_2 > -1841.219100
t_2_3 - t_2_2 + 2000.000000 u_2_3_2 > 6.832300
t_2_2 - t_2_3 - 2000.000000 u_2_3_2 > -1935.954800
t_1_3 - t_1_4 + 2000.000000 u_1_3_4 > 19.289600
t_1_4 - t_1_3 - 2000.000000 u_1_3_4 > -1841.219100
t_2_3 - t_2_4 + 2000.000000 u_2_3_4 > 10.459100
t_2_4 - t_2_3 - 2000.000000 u_2_3_4 > -1935.954800
t_1_5 - t_1_3 - 2000.000000 s_1_3 > -1836.630020
t_1_5 - t_2_3 - 2000.000000 s_2_3 > -1926.776640
t_2_5 - t_1_3 - 2000.000000 s_1_3 > -1836.630020
t_2_5 - t_2_3 - 2000.000000 s_2_3 > -1926.776640
t_1_4 - t_1_1 + 2000.000000 u_1_4_1 > 87.002600
t_1_1 - t_1_4 - 2000.000000 u_1_4_1 > -1980.710400
t_2_4 - t_2_1 + 2000.000000 u_2_4_1 > 35.409700
t_2_1 - t_2_4 - 2000.000000 u_2_4_1 > -1989.540900
t_1_4 - t_1_2 + 2000.000000 u_1_4_2 > 15.444000
t_1_2 - t_1_4 - 2000.000000 u_1_4_2 > -1980.710400
t_2_4 - t_2_2 + 2000.000000 u_2_4_2 > 6.832300
t_2_2 - t_2_4 - 2000.000000 u_2_4_2 > -1989.540900
t_1_4 - t_1_3 + 2000.000000 u_1_4_3 > 158.780900
t_1_3 - t_1_4 - 2000.000000 u_1_4_3 > -1980.710400
t_2_4 - t_2_3 + 2000.000000 u_2_4_3 > 64.045200
t_2_3 - t_2_4 - 2000.000000 u_2_4_3 > -1989.540900
t_1_5 - t_1_4 - 2000.000000 s_1_4 > -1976.121320
t_1_5 - t_2_4 - 2000.000000 s_2_4 > -1980.362740
t_2_5 - t_1_4 - 2000.000000 s_1_4 > -1976.121320
t_2_5 - t_2_4 - 2000.000000 s_2_4 > -1980.362740
t_1_5 - t_1_1 - 2000.000000 s_1_1 > -1908.408320
t_1_5 - t_2_1 - 2000.000000 s_2_1 > -1955.412140
t_2_5 - t_1_1 - 2000.000000 s_1_1 > -1908.408320
t_2_5 - t_2_1 - 2000.000000 s_2_1 > -1955.412140
t_1_5 - t_1_2 - 2000.000000 s_1_2 > -1979.966920
t_1_5 - t_2_2 - 2000.000000 s_2_2 > -1983.989540
t_2_5 - t_1_2 - 2000.000000 s_1_2 > -1979.966920
t_2_5 - t_2_2 - 2000.000000 s_2_2 > -1983.989540
t_1_5 - t_1_3 - 2000.000000 s_1_3 > -1836.630020
t_1_5 - t_2_3 - 2000.000000 s_2_3 > -1926.776640
t_2_5 - t_1_3 - 2000.000000 s_1_3 > -1836.630020
t_2_5 - t_2_3 - 2000.000000 s_2_3 > -1926.776640
t_1_5 - t_1_4 - 2000.000000 s_1_4 > -1976.121320
t_1_5 - t_2_4 - 2000.000000 s_2_4 > -1980.362740
t_2_5 - t_1_4 - 2000.000000 s_1_4 > -1976.121320
t_2_5 - t_2_4 - 2000.000000 s_2_4 > -1980.362740
Binary
s_1_1
s_2_1
s_1_2
s_2_2
s_1_3
s_2_3
s_1_4
s_2_4
s_1_5
s_2_5
u_1_1_2
u_2_1_2
u_1_1_3
u_2_1_3
u_1_1_4
u_2_1_4
u_1_2_1
u_2_2_1
u_1_2_3
u_2_2_3
u_1_2_4
u_2_2_4
u_1_3_1
u_2_3_1
u_1_3_2
u_2_3_2
u_1_3_4
u_2_3_4
u_1_4_1
u_2_4_1
u_1_4_2
u_2_4_2
u_1_4_3
u_2_4_3

End
